(declare-fun e () String)
(declare-fun c () String)
(declare-fun g () String)
(declare-fun b () String)
(declare-fun d () String)
(declare-fun f () String)
(declare-fun a () String)
(declare-fun h () String)
(assert (= (str.++ "b" g "f" d e "b") (str.++ g f b)))
(assert (= d (str.++ "bc" c "a")))
(assert (= b (str.++ a "b" c h)))

(check-sat)
